4 
5  19 43 58 
6  13 28 43 58 
7  13 28 43 58 
8  13 28 43 58 
9  13 28 43 58 
10  13 28 43 58 
11  13 28 43 58 
12  13 28 43 58 
13  13 30 45 
14  00 15 30 45 
15  00 15 30 45 
16  00 15 30 45 
17  00 15 30 45 
18  00 15 30 45 
19  00 14 28 43 58 
20  13 28 43 58 
21  13 28 43 58 
22  13 34 49 
23  04 19 
0 
